(set-info :smt-lib-version 2.6)
(set-logic QF_UF)
(set-info :source |
Generated by: Aman Goel (amangoel@umich.edu), Karem A. Sakallah (karem@umich.edu)
Generated on: 2018-04-06

Generated by the tool Averroes 2 (successor of [1]) which implements safety property
verification on hardware systems.

This SMT problem belongs to a set of SMT problems generated by applying Averroes 2
to benchmarks derived from [2-5].

A total of 412 systems (345 from [2], 19 from [3], 26 from [4], 22 from [5]) were
syntactically converted from their original formats (using [6, 7]), and given to 
Averroes 2 to perform property checking with abstraction (wide bit-vectors -> terms, 
wide operators -> UF) using SMT solvers [8, 9].

[1] Lee S., Sakallah K.A. (2014) Unbounded Scalable Verification Based on Approximate
Property-Directed Reachability and Datapath Abstraction. In: Biere A., Bloem R. (eds)
Computer Aided Verification. CAV 2014. Lecture Notes in Computer Science, vol 8559.
Springer, Cham
[2] http://fmv.jku.at/aiger/index.html#beem
[3] http://www.cs.cmu.edu/~modelcheck/vcegar
[4] http://www.cprover.org/hardware/v2c
[5] http://github.com/aman-goel/verilogbench
[6] http://www.clifford.at/yosys
[7] http://github.com/chengyinwu/V3
[8] http://github.com/Z3Prover/z3
[9] http://github.com/SRI-CSL/yices2

id: leader_filters.2.prop1
query-maker: "Yices 2"
query-time: 0.121000 ms
query-class: abstract
query-category: oneshot
query-type: regular
status: sat
|)
(set-info :license "https://creativecommons.org/licenses/by/4.0/")
(set-info :category "industrial")

;
(set-info :status sat)
(declare-sort utt$8 0)
(declare-sort utt$32 0)
(declare-fun Add_32_32_32 (utt$32 utt$32 ) utt$32)
(declare-fun GrEq_1_32_32 (utt$32 utt$32 ) Bool)
(declare-fun y$1 () Bool)
(declare-fun y$11 () Bool)
(declare-fun y$13 () Bool)
(declare-fun y$15 () Bool)
(declare-fun y$17 () Bool)
(declare-fun y$1810 () Bool)
(declare-fun y$1813 () Bool)
(declare-fun y$1814 () Bool)
(declare-fun y$1851 () Bool)
(declare-fun y$1871 () Bool)
(declare-fun y$1879 () Bool)
(declare-fun y$1884 () Bool)
(declare-fun y$1885 () Bool)
(declare-fun y$1886 () Bool)
(declare-fun y$1887 () Bool)
(declare-fun y$1888 () Bool)
(declare-fun y$1889 () Bool)
(declare-fun y$1890 () Bool)
(declare-fun y$1899 () Bool)
(declare-fun y$19 () Bool)
(declare-fun y$21 () Bool)
(declare-fun y$23 () Bool)
(declare-fun y$25 () Bool)
(declare-fun y$27 () Bool)
(declare-fun y$29 () Bool)
(declare-fun y$3 () Bool)
(declare-fun y$31 () Bool)
(declare-fun y$33 () Bool)
(declare-fun y$35 () Bool)
(declare-fun y$37 () Bool)
(declare-fun y$39 () Bool)
(declare-fun y$41 () Bool)
(declare-fun y$43 () Bool)
(declare-fun y$45 () Bool)
(declare-fun y$47 () Bool)
(declare-fun y$49 () Bool)
(declare-fun y$5 () Bool)
(declare-fun y$51 () Bool)
(declare-fun y$53 () Bool)
(declare-fun y$55 () Bool)
(declare-fun y$57 () Bool)
(declare-fun y$59 () Bool)
(declare-fun y$61 () Bool)
(declare-fun y$64 () Bool)
(declare-fun y$66 () Bool)
(declare-fun y$68 () Bool)
(declare-fun y$7 () Bool)
(declare-fun y$70 () Bool)
(declare-fun y$72 () Bool)
(declare-fun y$74 () Bool)
(declare-fun y$76 () Bool)
(declare-fun y$78 () Bool)
(declare-fun y$80 () Bool)
(declare-fun y$82 () Bool)
(declare-fun y$84 () Bool)
(declare-fun y$86 () Bool)
(declare-fun y$88 () Bool)
(declare-fun y$9 () Bool)
(declare-fun y$a_elected_P_0 () Bool)
(declare-fun y$a_elected_P_0$next () Bool)
(declare-fun y$a_elected_P_1 () Bool)
(declare-fun y$a_elected_P_1$next () Bool)
(declare-fun y$a_elected_P_2 () Bool)
(declare-fun y$a_p1_P_0 () Bool)
(declare-fun y$a_p1_P_1 () Bool)
(declare-fun y$a_p1_P_2 () Bool)
(declare-fun y$a_p2_P_0 () Bool)
(declare-fun y$a_p2_P_1 () Bool)
(declare-fun y$a_p2_P_2 () Bool)
(declare-fun y$a_p3_P_0 () Bool)
(declare-fun y$a_p3_P_1 () Bool)
(declare-fun y$a_p3_P_2 () Bool)
(declare-fun y$a_p4_P_0 () Bool)
(declare-fun y$a_p4_P_1 () Bool)
(declare-fun y$a_p4_P_2 () Bool)
(declare-fun y$a_p5_P_0 () Bool)
(declare-fun y$a_p5_P_1 () Bool)
(declare-fun y$a_p5_P_2 () Bool)
(declare-fun y$a_p6_P_0 () Bool)
(declare-fun y$a_p6_P_1 () Bool)
(declare-fun y$a_p6_P_2 () Bool)
(declare-fun y$a_p7_P_0 () Bool)
(declare-fun y$a_p7_P_1 () Bool)
(declare-fun y$a_p7_P_2 () Bool)
(declare-fun y$a_p8_P_0 () Bool)
(declare-fun y$a_p8_P_1 () Bool)
(declare-fun y$a_p8_P_2 () Bool)
(declare-fun y$a_p9_P_0 () Bool)
(declare-fun y$a_p9_P_1 () Bool)
(declare-fun y$a_p9_P_2 () Bool)
(declare-fun y$dve_invalid () Bool)
(declare-fun y$id59 () Bool)
(declare-fun y$id59_op () Bool)
(declare-fun y$n0s32 () utt$32)
(declare-fun y$n0s8 () utt$8)
(declare-fun y$n1s32 () utt$32)
(declare-fun y$n1s8 () utt$8)
(declare-fun y$n2s32 () utt$32)
(declare-fun y$n2s8 () utt$8)
(declare-fun y$n3s32 () utt$32)
(declare-fun y$n3s8 () utt$8)
(declare-fun y$n4s8 () utt$8)
(declare-fun y$prop () Bool)
(declare-fun y$v3_1517448499_52 () utt$32)
(declare-fun y$v3_1517448499_52$next () utt$32)
(declare-fun y$v3_1517448499_52$next_op () utt$32)
(declare-fun y$v3_1517448499_52_op () utt$32)
(declare-fun y$v3_1517448499_53 () utt$32)
(declare-fun y$v3_1517448499_53$next () utt$32)
(declare-fun y$v3_1517448499_53$next_op () utt$32)
(declare-fun y$v3_1517448499_53_op () utt$32)
(declare-fun y$v3_1517448499_54 () utt$32)
(declare-fun y$v3_1517448499_54$next () utt$32)
(declare-fun y$v3_1517448499_54$next_op () utt$32)
(declare-fun y$v3_1517448499_54_op () utt$32)
(declare-fun y$v3_1517448499_55 () utt$32)
(declare-fun y$v3_1517448499_55_op () utt$32)
(declare-fun y$v3_1517448499_56 () utt$32)
(declare-fun y$v3_1517448499_56_op () utt$32)
(declare-fun y$v3_1517448499_57 () Bool)
(declare-fun y$v3_1517448499_57_op () Bool)
(declare-fun y$v_c_0 () utt$8)
(declare-fun y$v_c_1 () utt$8)
(declare-fun y$v_c_2 () utt$8)
(declare-fun y$v_c_3 () utt$8)
(declare-fun y$v_c_4 () utt$8)
(declare-fun y$v_curr_P_0 () utt$8)
(declare-fun y$v_curr_P_1 () utt$8)
(declare-fun y$v_curr_P_2 () utt$8)
(declare-fun y$v_turn_0 () utt$8)
(declare-fun y$v_turn_1 () utt$8)
(declare-fun y$v_turn_2 () utt$8)
(declare-fun y$v_turn_3 () utt$8)
(declare-fun y$v_turn_4 () utt$8)
(assert (distinct y$n0s8 y$n2s8 y$n1s8 y$n3s8 y$n4s8))
(assert (distinct y$n1s32 y$n0s32 y$n2s32 y$n3s32))
(assert (= y$a_elected_P_0 (not y$1)))
(assert (= y$a_elected_P_1 (not y$3)))
(assert (= y$a_elected_P_2 (not y$5)))
(assert (= y$a_p1_P_0 (not y$7)))
(assert (= y$a_p1_P_1 (not y$9)))
(assert (= y$a_p1_P_2 (not y$11)))
(assert (= y$a_p2_P_0 (not y$13)))
(assert (= y$a_p2_P_1 (not y$15)))
(assert (= y$a_p2_P_2 (not y$17)))
(assert (= y$a_p3_P_0 (not y$19)))
(assert (= y$a_p3_P_1 (not y$21)))
(assert (= y$a_p3_P_2 (not y$23)))
(assert (= y$a_p4_P_0 (not y$25)))
(assert (= y$a_p4_P_1 (not y$27)))
(assert (= y$a_p4_P_2 (not y$29)))
(assert (= y$a_p5_P_0 (not y$31)))
(assert (= y$a_p5_P_1 (not y$33)))
(assert (= y$a_p5_P_2 (not y$35)))
(assert (= y$a_p6_P_0 (not y$37)))
(assert (= y$a_p6_P_1 (not y$39)))
(assert (= y$a_p6_P_2 (not y$41)))
(assert (= y$a_p7_P_0 (not y$43)))
(assert (= y$a_p7_P_1 (not y$45)))
(assert (= y$a_p7_P_2 (not y$47)))
(assert (= y$a_p8_P_0 (not y$49)))
(assert (= y$a_p8_P_1 (not y$51)))
(assert (= y$a_p8_P_2 (not y$53)))
(assert (= y$a_p9_P_0 (not y$55)))
(assert (= y$a_p9_P_1 (not y$57)))
(assert (= y$a_p9_P_2 (not y$59)))
(assert (= y$dve_invalid (not y$61)))
(assert (= y$64 (= y$n0s8 y$v_c_0)))
(assert (= y$66 (= y$n0s8 y$v_c_1)))
(assert (= y$68 (= y$n0s8 y$v_c_2)))
(assert (= y$70 (= y$n0s8 y$v_c_3)))
(assert (= y$72 (= y$n0s8 y$v_c_4)))
(assert (= y$74 (= y$n0s8 y$v_curr_P_0)))
(assert (= y$76 (= y$n0s8 y$v_curr_P_1)))
(assert (= y$78 (= y$n0s8 y$v_curr_P_2)))
(assert (= y$80 (= y$n0s8 y$v_turn_0)))
(assert (= y$82 (= y$n0s8 y$v_turn_1)))
(assert (= y$84 (= y$n0s8 y$v_turn_2)))
(assert (= y$86 (= y$n0s8 y$v_turn_3)))
(assert (= y$88 (= y$n0s8 y$v_turn_4)))
(assert (= y$prop (not y$1851)))
(assert (= y$v3_1517448499_52_op (ite y$a_elected_P_0 y$n1s32 y$n0s32)))
(assert (= y$v3_1517448499_53_op (ite y$a_elected_P_1 y$n1s32 y$n0s32)))
(assert (= y$v3_1517448499_54_op (Add_32_32_32 y$v3_1517448499_52_op y$v3_1517448499_53_op)))
(assert (= y$v3_1517448499_55_op (ite y$a_elected_P_2 y$n1s32 y$n0s32)))
(assert (= y$v3_1517448499_56_op (Add_32_32_32 y$v3_1517448499_54_op y$v3_1517448499_55_op)))
(assert (= y$v3_1517448499_57_op (GrEq_1_32_32 y$n1s32 y$v3_1517448499_56_op)))
(assert (= y$v3_1517448499_57_op (not y$1810)))
(assert (= y$id59_op (and y$61 y$1810)))
(assert (= y$id59_op (not y$1813)))
(assert (= y$1814 (= y$prop y$1813)))
(assert (= y$a_elected_P_0$next (not y$1885)))
(assert (= y$a_elected_P_1$next (not y$1886)))
(assert (= y$v3_1517448499_52$next_op (ite y$a_elected_P_0$next y$n1s32 y$n0s32)))
(assert (= y$v3_1517448499_53$next_op (ite y$a_elected_P_1$next y$n1s32 y$n0s32)))
(assert (= y$v3_1517448499_54$next_op (Add_32_32_32 y$v3_1517448499_52$next_op y$v3_1517448499_53$next_op)))
(assert (= y$1887 (not (= y$n0s32 y$v3_1517448499_54$next_op))))
(assert (= y$1888 (and y$1885 y$1886 y$1887)))
(assert (= y$1888 (not y$1890)))
(assert (= y$1879 (not (= y$n0s32 y$v3_1517448499_54_op))))
(assert (= y$1884 (and y$1 y$3 y$1879)))
(assert (= y$1884 (not y$1889)))
(assert (= y$1899 (and y$1 y$3 y$5 y$7 y$9 y$11 y$13 y$15 y$17 y$19 y$21 y$23 y$25 y$27 y$29 y$31 y$33 y$35 y$37 y$39 y$41 y$43 y$45 y$47 y$49 y$51 y$53 y$55 y$57 y$59 y$61 y$64 y$66 y$68 y$70 y$72 y$74 y$76 y$78 y$80 y$82 y$84 y$86 y$88 y$1851 y$1814 y$1890 y$1889)))
(assert y$1899)
(check-sat)
(exit)
